WARNING: for repeatability, setting FPU to use double precision
============================[ Problem Statistics ]=============================
|                                                                             |
|  Number of variables:           100                                         |
|  Number of clauses:             449                                         |
|  Parse time:                   0.00 s                                       |
|  Eliminated clauses:           0.00 Mb                                      |
|  Simplification time:          0.00 s                                       |
|                                                                             |
============================[ Search Statistics ]==============================
| Conflicts |          ORIGINAL         |          LEARNT          | Progress |
|           |    Vars  Clauses Literals |    Limit  Clauses Lit/Cl |          |
===============================================================================
|       100 |      97      444     1346 |      162      100      8 |  0.010 % |
|       250 |      97      444     1346 |      179      167      7 |  0.010 % |
===============================================================================
restarts              : 3
conflicts             : 291            (159103 /sec)
decisions             : 375            (0.00 % random) (205030 /sec)
propagations          : 6023           (3293056 /sec)
conflict literals     : 1952           (16.83 % deleted)
Memory used           : 13.00 MB
CPU time              : 0.001829 s

SATISFIABLE
